\ Model ajuste
\ LP format - for model browsing. Use MPS format to capture full model detail.
Minimize
  - 899054.1726434579 coef_ajuste + 442609.3936941056 Constant + [
   913105.7958365894 coef_ajuste ^2 ] / 2 
Subject To
Bounds
 coef_ajuste <= 1
 Constant = 1
End
